Academic license - for non-commercial use only - expires 2022-11-10
Using license file /home/benedond/Apps/gurobi/gurobi950/gurobi.lic
Using gurobi.env file
Set parameter Threads to value 1
Changed value of parameter TimeLimit to 1200.0
   Prev: inf  Min: 0.0  Max: inf  Default: inf
Gurobi Optimizer version 9.1.2 build v9.1.2rc0 (linux64)
Thread count: 2 physical cores, 4 logical processors, using up to 1 threads
Optimize a model with 2424 rows, 1200 columns and 9310 nonzeros
Model fingerprint: 0x0992ec03
Variable types: 24 continuous, 1176 integer (1152 binary)
Coefficient statistics:
  Matrix range     [2e-01, 4e+03]
  Objective range  [9e-04, 2e-01]
  Bounds range     [1e+00, 1e+00]
  RHS range        [1e+00, 4e+03]

---------------------------------------------------------------------------
Multi-objectives: starting optimization with 1 objectives ... 
---------------------------------------------------------------------------
---------------------------------------------------------------------------

Multi-objectives: optimize objective 1 (min avg power cons) ...
---------------------------------------------------------------------------

Optimize a model with 2424 rows, 1200 columns and 9310 nonzeros
Model fingerprint: 0x06db94db
Variable types: 24 continuous, 1176 integer (1152 binary)
Coefficient statistics:
  Matrix range     [2e-01, 4e+03]
  Objective range  [9e-04, 2e-01]
  Bounds range     [1e+00, 1e+00]
  RHS range        [1e+00, 4e+03]
Presolve removed 1562 rows and 763 columns
Presolve time: 0.06s
Presolved: 862 rows, 437 columns, 3218 nonzeros
Variable types: 19 continuous, 418 integer (401 binary)

Root relaxation: objective 1.427913e+00, 184 iterations, 0.00 seconds

    Nodes    |    Current Node    |     Objective Bounds      |     Work
 Expl Unexpl |  Obj  Depth IntInf | Incumbent    BestBd   Gap | It/Node Time

     0     0    1.42791    0   56          -    1.42791      -     -    0s
H    0     0                       4.2730000    1.42791  66.6%     -    0s
     0     0    1.46326    0   62    4.27300    1.46326  65.8%     -    0s
H    0     0                       4.0586522    1.46326  63.9%     -    0s
H    0     0                       3.5890696    1.46326  59.2%     -    0s
     0     0    1.49278    0   70    3.58907    1.49278  58.4%     -    0s
     0     0    1.67355    0   74    3.58907    1.67355  53.4%     -    0s
     0     0    1.67517    0   83    3.58907    1.67517  53.3%     -    0s
     0     0    1.76835    0   81    3.58907    1.76835  50.7%     -    0s
     0     0    1.77905    0   67    3.58907    1.77905  50.4%     -    0s
     0     0    1.90799    0   89    3.58907    1.90799  46.8%     -    0s
H    0     0                       3.5510870    1.90799  46.3%     -    0s
     0     0    1.91928    0   86    3.55109    1.91928  46.0%     -    0s
     0     0    1.93132    0   87    3.55109    1.93132  45.6%     -    0s
     0     0    1.93242    0   88    3.55109    1.93242  45.6%     -    0s
     0     0    1.93293    0   90    3.55109    1.93293  45.6%     -    0s
     0     0    1.93309    0   89    3.55109    1.93309  45.6%     -    0s
     0     0    1.93326    0   88    3.55109    1.93326  45.6%     -    0s
     0     0    1.93334    0   89    3.55109    1.93334  45.6%     -    0s
     0     0    1.94270    0   79    3.55109    1.94270  45.3%     -    0s
H    0     0                       3.4955740    1.94270  44.4%     -    0s
     0     0    1.94666    0   80    3.49557    1.94666  44.3%     -    0s
     0     0    1.94733    0   97    3.49557    1.94733  44.3%     -    0s
     0     0    1.94778    0   83    3.49557    1.94778  44.3%     -    0s
     0     0    1.95283    0  101    3.49557    1.95283  44.1%     -    0s
H    0     0                       3.4659826    1.95283  43.7%     -    0s
     0     0    1.95417    0  103    3.46598    1.95417  43.6%     -    0s
     0     0    1.95502    0  111    3.46598    1.95502  43.6%     -    0s
     0     0    1.95528    0  114    3.46598    1.95528  43.6%     -    0s
     0     0    1.95535    0  114    3.46598    1.95535  43.6%     -    0s
     0     0    1.96285    0   90    3.46598    1.96285  43.4%     -    0s
     0     0    1.96384    0   90    3.46598    1.96384  43.3%     -    0s
     0     0    1.96438    0   92    3.46598    1.96438  43.3%     -    0s
     0     0    1.96441    0   92    3.46598    1.96441  43.3%     -    0s
     0     0    1.96882    0   95    3.46598    1.96882  43.2%     -    0s
H    0     0                       3.4534435    1.96882  43.0%     -    0s
     0     0    1.96909    0   84    3.45344    1.96909  43.0%     -    0s
     0     0    1.96949    0   95    3.45344    1.96949  43.0%     -    0s
     0     0    1.96955    0   97    3.45344    1.96955  43.0%     -    0s
     0     0    1.97143    0   83    3.45344    1.97143  42.9%     -    0s
H    0     0                       3.3963131    1.97143  42.0%     -    0s
     0     0    1.97206    0   91    3.39631    1.97206  41.9%     -    0s
     0     0    1.97243    0   93    3.39631    1.97243  41.9%     -    0s
     0     0    1.97285    0   94    3.39631    1.97285  41.9%     -    0s
     0     0    1.97300    0   93    3.39631    1.97300  41.9%     -    0s
     0     0    1.97450    0   90    3.39631    1.97450  41.9%     -    0s
H    0     0                       3.3551826    1.97450  41.2%     -    0s
     0     0    1.97480    0   84    3.35518    1.97480  41.1%     -    0s
     0     0    1.97501    0   91    3.35518    1.97501  41.1%     -    0s
     0     0    1.97537    0   91    3.35518    1.97537  41.1%     -    0s
     0     0    1.97537    0   88    3.35518    1.97537  41.1%     -    0s
H    0     0                       3.2227217    1.97537  38.7%     -    0s
     0     2    1.97543    0   87    3.22272    1.97543  38.7%     -    0s
H  134    54                       3.0485044    2.01426  33.9%  36.1    0s
H  160    60                       3.0323913    2.05003  32.4%  36.1    0s
H  186    80                       3.0301479    2.05210  32.3%  38.8    0s
H  340   137                       2.9802696    2.14599  28.0%  35.2    0s
H  440   188                       2.9417826    2.15904  26.6%  33.8    0s
H  477   198                       2.9087913    2.16240  25.7%  34.1    0s
  1925   620    2.52107   29   62    2.90879    2.23338  23.2%  37.6    5s
  4030  1352    2.77455   26   60    2.90879    2.35654  19.0%  39.2   10s
  6890  2211    2.87673   40   30    2.90879    2.43230  16.4%  39.0   15s
  9708  2925    2.89406   40   28    2.90879    2.48836  14.5%  39.2   20s
 10202  3030     cutoff   23         2.90879    2.49675  14.2%  39.7   25s
 12171  3484    2.63419   23   87    2.90879    2.53062  13.0%  41.5   30s
 14360  3788    2.63872   44   57    2.90879    2.56480  11.8%  43.4   35s
 16615  4164    2.71000   28   63    2.90879    2.59652  10.7%  44.5   40s
 18992  4446     cutoff   36         2.90879    2.63275  9.49%  45.2   45s
 20410  4589    2.73892   27   79    2.90879    2.65057  8.88%  45.5   50s
 22730  4768    2.90690   35   39    2.90879    2.67322  8.10%  46.2   55s
 25192  4940    2.74255   42   62    2.90879    2.69634  7.30%  46.2   60s
 27679  5026     cutoff   35         2.90879    2.71464  6.67%  46.1   65s
 30467  5057    2.84605   28   69    2.90879    2.73816  5.87%  45.5   70s
 33162  4855     cutoff   40         2.90879    2.76133  5.07%  45.1   75s
 36099  4650     cutoff   42         2.90879    2.78217  4.35%  44.3   80s
*36188  4629              43       2.9074174    2.78262  4.29%  44.3   80s
 38128  4458     cutoff   32         2.90742    2.79541  3.85%  43.7   85s
*40062  4158              61       2.9035739    2.80789  3.30%  42.9   87s
 42042  3778     cutoff   35         2.90357    2.82043  2.86%  42.2   90s
 46618  2553    2.87585   55   38    2.90357    2.84937  1.87%  40.4   95s

Cutting planes:
  Learned: 3
  Gomory: 6
  Cover: 12
  Implied bound: 173
  Projected implied bound: 58
  Clique: 2
  MIR: 171
  Flow cover: 290
  GUB cover: 29
  Zero half: 1
  Mod-K: 4
  RLT: 4
  Relax-and-lift: 417

Explored 51491 nodes (1962465 simplex iterations) in 98.94 seconds
Thread count was 1 (of 4 available processors)

Solution count 10: 2.90357 2.90742 2.90879 ... 3.35518

Optimal solution found (tolerance 1.00e-04)
Best objective 2.903573931313e+00, best bound 2.903312787509e+00, gap 0.0090%

---------------------------------------------------------------------------
Multi-objectives: solved in 98.94 seconds, solution count 10

